(set-logic QF_UF)
(declare-fun A0 () Bool)
(declare-fun A1 () Bool)
(declare-fun A2 () Bool)
(declare-fun A3 () Bool)
(declare-fun A4 () Bool)
(declare-fun A5 () Bool)
(declare-fun A6 () Bool)
(declare-fun A7 () Bool)
(declare-fun A8 () Bool)
(declare-fun A9 () Bool)
(declare-fun A10 () Bool)
(declare-fun A11 () Bool)
(declare-fun A12 () Bool)
(declare-fun A13 () Bool)
(declare-fun A14 () Bool)
(declare-fun A15 () Bool)
(declare-fun A16 () Bool)
(declare-fun A17 () Bool)
(declare-fun A19 () Bool)
(declare-fun A20 () Bool)
(declare-fun A21 () Bool)
(declare-fun A22 () Bool)
(declare-fun A23 () Bool)
(declare-fun A24 () Bool)
(assert (let ((.def_0 (not A9))) (let ((.def_1 (or .def_0 A5))) (let ((.def_2 (not .def_1))) (let ((.def_3 (and A2 A9))) (let ((.def_4 (not .def_3))) (let ((.def_5 (= .def_4 .def_2))) (let ((.def_6 (not A1))) (let ((.def_7 (and .def_6 A24))) (let ((.def_8 (not A0))) (let ((.def_9 (= A13 .def_8))) (let ((.def_10 (and .def_9 .def_7))) (let ((.def_11 (or .def_10 .def_5))) (let ((.def_12 (not .def_11))) (let ((.def_13 (or A23 .def_6))) (let ((.def_14 (not .def_13))) (let ((.def_15 (not A5))) (let ((.def_16 (= A24 .def_15))) (let ((.def_17 (not .def_16))) (let ((.def_18 (or .def_17 .def_14))) (let ((.def_19 (not .def_18))) (let ((.def_20 (and A2 A4))) (let ((.def_21 (not A2))) (let ((.def_22 (or .def_21 A19))) (let ((.def_23 (not .def_22))) (let ((.def_24 (= .def_23 .def_20))) (let ((.def_25 (not .def_24))) (let ((.def_26 (or .def_25 .def_19))) (let ((.def_27 (and .def_26 .def_12))) (let ((.def_28 (not .def_27))) (let ((.def_29 (not A21))) (let ((.def_30 (or A7 .def_29))) (let ((.def_31 (not A10))) (let ((.def_32 (or .def_31 A12))) (let ((.def_33 (or .def_32 .def_30))) (let ((.def_34 (not .def_33))) (let ((.def_35 (not A4))) (let ((.def_36 (or .def_35 A3))) (let ((.def_37 (not .def_36))) (let ((.def_38 (not A7))) (let ((.def_39 (and .def_8 .def_38))) (let ((.def_40 (= .def_39 .def_37))) (let ((.def_41 (or .def_40 .def_34))) (let ((.def_42 (and A11 A6))) (let ((.def_43 (not A17))) (let ((.def_44 (or .def_43 A2))) (let ((.def_45 (not .def_44))) (let ((.def_46 (or .def_45 .def_42))) (let ((.def_47 (not .def_46))) (let ((.def_48 (not A13))) (let ((.def_49 (= .def_48 A20))) (let ((.def_50 (not A19))) (let ((.def_51 (and A15 .def_50))) (let ((.def_52 (and .def_51 .def_49))) (let ((.def_53 (not .def_52))) (let ((.def_54 (= .def_53 .def_47))) (let ((.def_55 (not .def_54))) (let ((.def_56 (and .def_55 .def_41))) (let ((.def_57 (and .def_56 .def_28))) (let ((.def_58 (not .def_57))) (let ((.def_59 (not A15))) (let ((.def_60 (= .def_59 A12))) (let ((.def_61 (not .def_60))) (let ((.def_62 (and A21 A21))) (let ((.def_63 (and .def_62 .def_61))) (let ((.def_64 (not .def_63))) (let ((.def_65 (and A9 .def_0))) (let ((.def_66 (not A8))) (let ((.def_67 (= .def_0 .def_66))) (let ((.def_68 (or .def_67 .def_65))) (let ((.def_69 (or .def_68 .def_64))) (let ((.def_70 (not .def_69))) (let ((.def_71 (and .def_29 A5))) (let ((.def_72 (not A14))) (let ((.def_73 (or A13 .def_72))) (let ((.def_74 (not .def_73))) (let ((.def_75 (and .def_74 .def_71))) (let ((.def_76 (not A6))) (let ((.def_77 (and .def_76 A21))) (let ((.def_78 (or A0 A12))) (let ((.def_79 (or .def_78 .def_77))) (let ((.def_80 (and .def_79 .def_75))) (let ((.def_81 (not .def_80))) (let ((.def_82 (and .def_81 .def_70))) (let ((.def_83 (not .def_82))) (let ((.def_84 (and .def_72 A16))) (let ((.def_85 (not .def_84))) (let ((.def_86 (not A22))) (let ((.def_87 (and A0 .def_86))) (let ((.def_88 (or .def_87 .def_85))) (let ((.def_89 (not .def_88))) (let ((.def_90 (or .def_31 .def_35))) (let ((.def_91 (or A9 A10))) (let ((.def_92 (not .def_91))) (let ((.def_93 (or .def_92 .def_90))) (let ((.def_94 (= .def_93 .def_89))) (let ((.def_95 (not .def_94))) (let ((.def_96 (and .def_50 A12))) (let ((.def_97 (not .def_96))) (let ((.def_98 (or A15 A13))) (let ((.def_99 (not .def_98))) (let ((.def_100 (and .def_99 .def_97))) (let ((.def_101 (not .def_100))) (let ((.def_102 (not A24))) (let ((.def_103 (and A4 .def_102))) (let ((.def_104 (not .def_103))) (let ((.def_105 (and A23 .def_43))) (let ((.def_106 (and .def_105 .def_104))) (let ((.def_107 (not .def_106))) (let ((.def_108 (= .def_107 .def_101))) (let ((.def_109 (not .def_108))) (let ((.def_110 (and .def_109 .def_95))) (let ((.def_111 (or .def_110 .def_83))) (let ((.def_112 (not .def_111))) (let ((.def_113 (and .def_112 .def_58))) .def_113)))))))))))))))))))))))))))))))))))))))))))))))))))))))))))))))))))))))))))))))))))))))))))))))))))))))))))))))))))
(check-sat)
